************************************************************************
file with basedata            : mm5_.bas
initial value random generator: 652647244
************************************************************************
projects                      :  1
jobs (incl. supersource/sink ):  12
horizon                       :  84
RESOURCES
  - renewable                 :  2   R
  - nonrenewable              :  2   N
  - doubly constrained        :  0   D
************************************************************************
PROJECT INFORMATION:
pronr.  #jobs rel.date duedate tardcost  MPM-Time
    1     10      0       17        0       17
************************************************************************
PRECEDENCE RELATIONS:
jobnr.    #modes  #successors   successors
   1        1          3           2   3   4
   2        3          2           5   6
   3        3          1           7
   4        3          1           8
   5        3          2           7  11
   6        3          3           8  10  11
   7        3          2           9  10
   8        3          1           9
   9        3          1          12
  10        3          1          12
  11        3          1          12
  12        1          0        
************************************************************************
REQUESTS/DURATIONS:
jobnr. mode duration  R 1  R 2  N 1  N 2
------------------------------------------------------------------------
  1      1     0       0    0    0    0
  2      1     2       7    0    8    5
         2     6       7    0    5    4
         3     6       6    0    5    5
  3      1     7       0    5    2    7
         2     8       0    4    2    7
         3    10       0    4    2    6
  4      1     1       9    0    7   10
         2     4       9    0    5    9
         3     9       9    0    4    9
  5      1     1       5    0    7   10
         2     7       0    5    5   10
         3    10       0    4    4   10
  6      1     1       4    0    5    5
         2     1       0    8    5    7
         3     5       0    5    4    4
  7      1     6       0    4    5    8
         2     8       0    4    3    6
         3    10       0    4    3    5
  8      1     1       0    7    8    7
         2    10       7    0    7    5
         3    10       5    0    7    6
  9      1     1       0    7    5    8
         2     8       7    0    5    7
         3    10       0    2    2    5
 10      1     4       8    0    9    6
         2     6       8    0    4    5
         3     9       0    7    1    3
 11      1     2       0    9    8    7
         2     3       7    0    8    6
         3     5       7    0    7    3
 12      1     0       0    0    0    0
************************************************************************
RESOURCEAVAILABILITIES:
  R 1  R 2  N 1  N 2
   10    7   44   58
************************************************************************
MAXIMAL LAGS:
from  to  type  delay
    1   12   ES      0
    1    2   ES      0
    2   12   ES      0
    1    3   ES      0
    3   12   ES      0
    1    4   ES      0
    4   12   ES      0
    1    5   ES      0
    5   12   ES      0
    1    6   ES      0
    6   12   ES      0
    1    7   ES      0
    7   12   ES      0
    1    8   ES      0
    8   12   ES      0
    1    9   ES      0
    9   12   ES      0
    1   10   ES      0
   10   12   ES      0
    1   11   ES      0
   11   12   ES      0
    1   12   ES      0
    2    5   SS      5
    2    5   SE     12
    2    5   ES     -9
    2    5   EE      6
    2    6   SS     -8
    2    6   SE      3
    2    6   ES      3
    2    6   EE      5
    3    7   SS      5
    3    7   SE     11
    3    7   ES     12
    3    7   EE     -2
    4    8   SS     -9
    4    8   SE      7
    4    8   ES    -11
    4    8   EE      8
    5    7   SS     -2
    5    7   SE     -5
    5    7   ES     -3
    5    7   EE      5
    5   11   SS      1
    5   11   SE     -3
    5   11   ES    -11
    5   11   EE     -9
    6    8   SS    -11
    6    8   SE     -3
    6    8   ES      9
    6    8   EE     -8
    6   10   SS     10
    6   10   SE     -4
   10    6   SE      0
    6   10   ES      0
    6   10   EE     -8
    6   11   SS     -4
    6   11   SE     -2
    6   11   ES      1
    6   11   EE    -10
    7    9   SS      4
    7    9   SE     -1
    7    9   ES    -10
    7    9   EE      3
    7   10   SS     -3
    7   10   SE     11
    7   10   ES     -3
    7   10   EE      1
    8    9   SS    -12
    8    9   SE    -12
    8    9   ES     -3
    8    9   EE     -2
************************************************************************
